c FILE /home/rafael/Documents/HappySet/MIHS/inputs/happygen/output/graph_d_regular_k7_p0.4_v100_20241127_084104.txt
c SOURCE This is a d-regular graph formed for the happy graph colouring problem.
c DESCRIPTION It was generated using the problem generator of Rhyd Lewis
c
c GRAPH STATS
c Seed                             = -915801693
c Number of Nodes                  = 100
c Number of colours k              = 7
c Number of pre-assignments        = 40
c Degree of all vertices           = 6
c Density                          = 0.0606061
c 
c The degrees of nodes 1 to 100, respectively, are as follows 
c [6, 6, 6, 6, 6, 6, 6, 6, 6, 6, 6, 6, 6, 6, 6, 6, 6, 6, 6, 6, 6, 6, 6, 6, 6, 6, 
c  6, 6, 6, 6, 6, 6, 6, 6, 6, 6, 6, 6, 6, 6, 6, 6, 6, 6, 6, 6, 6, 6, 6, 6, 6, 
c  6, 6, 6, 6, 6, 6, 6, 6, 6, 6, 6, 6, 6, 6, 6, 6, 6, 6, 6, 6, 6, 6, 6, 6, 6, 
c  6, 6, 6, 6, 6, 6, 6, 6, 6, 6, 6, 6, 6, 6, 6, 6, 6, 6, 6, 6, 6, 6, 6, 6] 
c  
p edge 100 300 7
e 1 8
e 1 26
e 1 27
e 1 30
e 1 39
e 1 48
e 2 3
e 2 7
e 2 38
e 2 66
e 2 90
e 2 91
e 3 4
e 3 62
e 3 64
e 3 95
e 3 98
e 4 12
e 4 23
e 4 69
e 4 71
e 4 86
e 5 6
e 5 10
e 5 18
e 5 25
e 5 57
e 5 72
e 6 21
e 6 34
e 6 53
e 6 74
e 6 96
e 7 11
e 7 33
e 7 44
e 7 51
e 7 74
e 8 43
e 8 54
e 8 58
e 8 62
e 8 89
e 9 23
e 9 39
e 9 44
e 9 68
e 9 69
e 9 73
e 10 42
e 10 45
e 10 55
e 10 56
e 10 85
e 11 46
e 11 48
e 11 63
e 11 72
e 11 75
e 12 17
e 12 31
e 12 53
e 12 64
e 12 94
e 13 45
e 13 56
e 13 57
e 13 67
e 13 71
e 13 72
e 14 15
e 14 19
e 14 40
e 14 44
e 14 47
e 14 74
e 15 16
e 15 36
e 15 38
e 15 65
e 15 84
e 16 36
e 16 43
e 16 69
e 16 75
e 16 95
e 17 19
e 17 29
e 17 46
e 17 51
e 17 57
e 18 20
e 18 41
e 18 65
e 18 84
e 18 88
e 19 23
e 19 50
e 19 60
e 19 86
e 20 21
e 20 22
e 20 35
e 20 54
e 20 88
e 21 37
e 21 49
e 21 89
e 21 97
e 22 26
e 22 65
e 22 75
e 22 78
e 22 92
e 23 28
e 23 36
e 23 38
e 24 53
e 24 64
e 24 78
e 24 80
e 24 85
e 24 93
e 25 34
e 25 42
e 25 50
e 25 62
e 25 83
e 26 46
e 26 82
e 26 88
e 26 96
e 27 28
e 27 59
e 27 69
e 27 75
e 27 83
e 28 39
e 28 58
e 28 63
e 28 68
e 29 49
e 29 58
e 29 80
e 29 87
e 29 96
e 30 40
e 30 54
e 30 76
e 30 90
e 30 92
e 31 35
e 31 36
e 31 60
e 31 80
e 31 81
e 32 41
e 32 44
e 32 56
e 32 82
e 32 94
e 32 97
e 33 53
e 33 60
e 33 68
e 33 84
e 33 100
e 34 45
e 34 48
e 34 92
e 34 100
e 35 58
e 35 63
e 35 71
e 35 82
e 36 42
e 36 60
e 37 50
e 37 52
e 37 71
e 37 89
e 37 98
e 38 67
e 38 76
e 38 98
e 39 50
e 39 74
e 39 79
e 40 56
e 40 62
e 40 67
e 40 86
e 41 54
e 41 82
e 41 88
e 41 98
e 42 45
e 42 53
e 42 90
e 43 64
e 43 67
e 43 84
e 43 95
e 44 52
e 44 90
e 45 63
e 45 77
e 46 47
e 46 87
e 46 99
e 47 61
e 47 64
e 47 70
e 47 81
e 48 72
e 48 78
e 48 97
e 49 65
e 49 87
e 49 91
e 49 100
e 50 86
e 50 95
e 51 57
e 51 59
e 51 70
e 51 85
e 52 71
e 52 91
e 52 92
e 52 97
e 53 95
e 54 69
e 54 98
e 55 70
e 55 76
e 55 79
e 55 83
e 55 96
e 56 57
e 56 89
e 57 61
e 58 75
e 58 98
e 59 72
e 59 76
e 59 80
e 59 87
e 60 88
e 60 93
e 61 70
e 61 74
e 61 77
e 61 88
e 62 73
e 62 78
e 63 66
e 63 94
e 64 74
e 65 67
e 65 99
e 66 69
e 66 79
e 66 80
e 66 93
e 67 99
e 68 85
e 68 89
e 68 92
e 70 73
e 70 78
e 71 97
e 72 97
e 73 81
e 73 86
e 73 91
e 75 99
e 76 77
e 76 99
e 77 87
e 77 93
e 77 100
e 78 87
e 79 84
e 79 93
e 79 100
e 80 83
e 81 82
e 81 86
e 81 94
e 82 95
e 83 85
e 83 90
e 84 91
e 85 96
e 89 94
e 90 100
e 91 94
e 92 93
e 96 99
n 1 2
n 2 2
n 5 1
n 9 6
n 11 2
n 12 5
n 14 4
n 16 6
n 23 6
n 24 5
n 33 7
n 34 2
n 40 4
n 41 4
n 42 2
n 45 2
n 49 1
n 50 6
n 51 1
n 55 3
n 57 1
n 58 3
n 59 1
n 60 7
n 61 1
n 62 4
n 63 2
n 64 5
n 65 1
n 66 2
n 71 7
n 81 3
n 84 7
n 87 1
n 89 6
n 90 2
n 92 2
n 95 6
n 96 3
n 97 7
